c FILE: i080-314

c SOURCE: From steinlib

c DESCRIPTION: Steinlib instance with 80 nodes and 350 edges.

p edge 80 350
e 1 11
e 1 25
e 1 40
e 1 42
e 1 46
e 1 51
e 1 57
e 1 68
e 1 80
e 2 19
e 2 26
e 2 31
e 2 42
e 2 56
e 2 63
e 3 21
e 3 40
e 3 43
e 3 59
e 3 60
e 3 73
e 4 20
e 4 32
e 4 51
e 4 52
e 4 60
e 4 73
e 4 74
e 5 14
e 5 22
e 5 33
e 5 40
e 5 54
e 5 64
e 5 69
e 5 72
e 5 75
e 6 11
e 6 19
e 6 33
e 6 46
e 6 50
e 6 51
e 6 54
e 6 55
e 6 62
e 6 74
e 6 77
e 7 24
e 7 51
e 7 58
e 7 62
e 7 67
e 7 74
e 7 75
e 7 76
e 8 32
e 8 45
e 8 47
e 8 49
e 8 58
e 8 61
e 8 72
e 8 73
e 8 77
e 9 16
e 9 37
e 9 40
e 9 50
e 9 61
e 9 64
e 9 66
e 10 36
e 10 39
e 10 40
e 10 41
e 10 56
e 10 63
e 10 66
e 10 74
e 10 80
e 11 21
e 11 30
e 11 33
e 11 58
e 11 68
e 11 74
e 11 79
e 12 16
e 12 30
e 12 34
e 12 43
e 12 52
e 12 53
e 12 59
e 12 64
e 12 67
e 12 74
e 12 75
e 12 77
e 13 14
e 13 19
e 13 31
e 13 47
e 13 52
e 13 54
e 13 58
e 13 60
e 13 77
e 14 15
e 14 17
e 14 28
e 14 35
e 14 36
e 14 38
e 14 42
e 14 44
e 14 58
e 14 79
e 15 19
e 15 20
e 15 25
e 15 31
e 15 32
e 15 44
e 15 47
e 15 75
e 15 76
e 16 29
e 16 36
e 16 40
e 16 52
e 16 58
e 16 59
e 16 75
e 16 77
e 17 18
e 17 27
e 17 29
e 17 40
e 17 61
e 17 70
e 17 77
e 18 28
e 18 52
e 18 61
e 19 29
e 19 30
e 19 40
e 19 42
e 19 43
e 19 65
e 19 70
e 19 72
e 20 34
e 21 22
e 21 31
e 21 39
e 21 46
e 21 53
e 21 56
e 21 58
e 21 64
e 21 80
e 22 40
e 22 49
e 22 62
e 23 27
e 23 30
e 23 40
e 23 42
e 23 43
e 23 44
e 23 54
e 23 58
e 23 62
e 23 65
e 23 72
e 23 78
e 24 54
e 24 64
e 24 70
e 24 76
e 24 77
e 25 28
e 25 29
e 25 42
e 25 48
e 25 56
e 25 64
e 26 32
e 26 43
e 26 59
e 27 38
e 27 39
e 27 40
e 27 43
e 27 46
e 27 49
e 27 54
e 27 66
e 27 72
e 28 37
e 28 40
e 28 41
e 28 50
e 28 59
e 28 60
e 28 69
e 28 79
e 29 37
e 29 38
e 29 49
e 29 55
e 29 61
e 29 62
e 29 71
e 30 45
e 30 52
e 30 63
e 30 64
e 30 73
e 30 76
e 31 34
e 31 44
e 31 50
e 31 52
e 31 55
e 31 66
e 31 70
e 31 76
e 31 80
e 32 40
e 32 41
e 32 43
e 32 58
e 32 70
e 33 37
e 33 39
e 33 42
e 33 45
e 33 54
e 33 62
e 33 64
e 33 65
e 33 71
e 34 38
e 34 41
e 34 55
e 34 57
e 34 60
e 34 62
e 34 73
e 34 78
e 35 45
e 35 47
e 35 50
e 35 51
e 35 59
e 35 67
e 36 40
e 36 64
e 36 78
e 37 41
e 37 44
e 37 64
e 38 44
e 38 46
e 38 73
e 38 77
e 38 80
e 39 45
e 39 70
e 39 75
e 39 77
e 40 41
e 40 73
e 40 77
e 40 80
e 41 49
e 42 52
e 42 72
e 42 75
e 42 79
e 43 61
e 43 65
e 43 68
e 43 79
e 43 80
e 44 71
e 44 75
e 45 52
e 45 70
e 45 75
e 45 76
e 46 49
e 46 60
e 46 61
e 46 78
e 47 52
e 47 64
e 47 65
e 47 72
e 48 52
e 48 76
e 49 60
e 49 69
e 49 80
e 50 68
e 50 76
e 51 52
e 51 53
e 51 78
e 53 63
e 53 66
e 53 78
e 54 72
e 56 67
e 56 69
e 56 73
e 57 59
e 57 77
e 58 62
e 58 63
e 58 71
e 58 79
e 59 65
e 60 78
e 60 80
e 61 62
e 61 64
e 61 70
e 62 78
e 62 79
e 62 80
e 63 65
e 63 74
e 63 79
e 64 67
e 65 67
e 66 69
e 66 73
e 67 76
e 68 70
e 68 71
e 69 74
e 72 73
e 74 80
e 75 77
e 76 78
